networks/zoo_110_594/zoo_110_594.txt
Number of groups: 73
Flow 18: {1 30} {30 51} {51 33} 
Flow 19: {32 34} {34 89} 
Flow 40: {2 5} {5 9} {9 39} {39 94} 
Flow 59: {3 30} {30 47} {47 102} 
Flow 67: {4 32} {32 14} {14 69} 
Flow 103: {6 50} {50 105} 
Flow 108: {8 5} {5 50} 
Flow 132: {10 9} 
Flow 135: {11 19} {19 20} 
Flow 139: {12 26} 
Flow 184: {15 29} {29 13} {13 68} 
Flow 190: {51 30} {30 3} {3 58} 
Flow 197: {16 51} {51 32} {32 24} {24 79} 
Flow 210: {21 20} 
Flow 216: {22 20} {20 9} {9 50} 
Flow 236: {23 32} {32 51} {51 106} 
Flow 251: {24 32} {32 33} {33 88} 
Flow 258: {25 50} 
Flow 267: {26 54} {54 35} {35 90} 
Flow 273: {27 26} 
Flow 275: {28 29} {29 30} {30 85} 
Flow 303: {50 6} {6 61} 
Flow 304: {50 7} {7 62} 
Flow 306: {9 10} {10 65} 
Flow 307: {19 11} {11 66} 
Flow 308: {26 12} {12 67} 
Flow 311: {30 29} {29 15} {15 70} 
Flow 314: {20 18} {18 73} 
Flow 317: {20 21} {21 76} 
Flow 318: {20 22} {22 77} 
Flow 321: {50 25} {25 80} 
Flow 323: {26 27} {27 82} 
Flow 325: {30 14} {14 31} {31 86} 
Flow 330: {17 36} {36 91} 
Flow 331: {44 37} {37 92} 
Flow 332: {13 44} {44 17} {17 38} {38 93} 
Flow 334: {9 40} {40 95} 
Flow 336: {44 42} {42 97} 
Flow 337: {44 43} {43 98} 
Flow 338: {44 99} 
Flow 339: {32 46} {46 101} 
Flow 341: {14 48} {48 103} 
Flow 346: {14 53} {53 108} 
Flow 347: {50 54} {54 109} 
Flow 351: {31 14} {14 30} {30 13} {13 26} {26 81} 
Flow 367: {50 17} {17 72} 
Flow 384: {34 54} 
Flow 394: {37 44} 
Flow 397: {38 17} {17 50} 
Flow 399: {39 9} {9 5} {5 2} {2 57} 
Flow 405: {39 50} {50 13} {13 29} {29 16} {16 71} 
Flow 418: {40 9} {9 64} 
Flow 421: {40 7} {7 50} {50 32} {32 87} 
Flow 429: {42 44} 
Flow 434: {43 44} {44 13} 
Flow 444: {17 20} {20 75} 
Flow 458: {46 32} 
Flow 463: {47 30} {30 32} {32 4} {4 59} 
Flow 470: {13 41} {41 9} {9 20} {20 19} {19 74} 
Flow 484: {13 52} {52 107} 
Flow 488: {48 14} 
Flow 489: {49 35} {35 32} {32 30} 
Flow 525: {7 40} 
Flow 526: {50 9} {9 41} {41 96} 
Flow 531: {32 35} {35 49} {49 104} 
Flow 536: {41 55} {55 110} 
Flow 552: {51 16} {16 29} {29 84} 
Flow 570: {52 13} {13 50} {50 39} 
Flow 576: {53 14} {14 32} {32 50} 
Flow 577: {54 26} {26 13} {13 30} {30 1} {1 56} 
Flow 579: {54 50} {50 5} {5 60} 
Flow 583: {54 34} {34 32} {32 23} {23 78} 
Flow 592: {55 41} {41 13} 
Time taken running everything: 7 seconds
